(set-logic HORN)
; KVARS

(declare-fun k_98 (Int Int Int Int Int Int) Bool)

(declare-fun k_95 (Int Int Int Int Int Int) Bool)

(declare-fun k_93 (Int Int Int Int Int Int Int) Bool)

(declare-fun k_91 (Int Int Int Int Int Int Int) Bool)

(declare-fun k_89 (Int Int Int Int Int Int Int) Bool)

(declare-fun k_86 (Int Int Int Int Int Int Int) Bool)

(declare-fun k_84 (Int Int Int Int Int Int Int Int) Bool)

(declare-fun k_82 (Int Int Int Int Int Int Int Int) Bool)

(declare-fun k_80 (Int Int Int Int Int Int Int) Bool)

(declare-fun k_78 (Int Int Int Int Int Int) Bool)

(declare-fun k_75 (Int Int Int Int Int Int Int) Bool)

(declare-fun k_72 (Int Int Int Int Int Int Int) Bool)

(declare-fun k_70 (Int Int Int Int Int Int Int Int) Bool)

(declare-fun k_68 (Int Int Int Int Int Int Int Int) Bool)

(declare-fun k_66 (Int Int Int Int Int Int Int) Bool)

(declare-fun k_63 (Int Int Int Int Int Int Int Int) Bool)

(declare-fun k_61 (Int Int Int Int Int Int Int Int) Bool)

(declare-fun k_59 (Int Int Int Int Int Int Int Int) Bool)

(declare-fun k_57 (Int Int Int Int Int Int Int) Bool)

(declare-fun k_55 (Int Int Int Int Int Int) Bool)

(declare-fun k_493 (Int Int Int Int Int Int Int Int Int Int) Bool)

(declare-fun k_491 (Int Int Int Int Int Int Int Int Int Int) Bool)

(declare-fun k_488 (Int Int Int Int Int Int Int Int Int Int Int) Bool)

(declare-fun k_485 (Int Int Int Int Int Int Int Int Int Int Int) Bool)

(declare-fun k_482 (Int Int Int Int Int Int Int Int Int Int Int) Bool)

(declare-fun k_480 (Int Int Int Int Int Int Int Int Int Int Int Int) Bool)

(declare-fun k_478 (Int Int Int Int Int Int Int Int Int Int Int Int) Bool)

(declare-fun k_476 (Int Int Int Int Int Int Int Int Int Int Int Int) Bool)

(declare-fun k_473 (Int Int Int Int Int Int Int Int Int Int Int Int) Bool)

(declare-fun k_471 (Int Int Int Int Int Int Int Int Int Int Int Int Int) Bool)

(declare-fun k_469 (Int Int Int Int Int Int Int Int Int Int Int Int Int) Bool)

(declare-fun k_467 (Int Int Int Int Int Int Int Int Int Int Int Int) Bool)

(declare-fun k_465 (Int Int Int Int Int Int Int Int Int Int Int) Bool)

(declare-fun k_462 (Int Int Int Int Int Int Int Int Int Int Int Int) Bool)

(declare-fun k_459 (Int Int Int Int Int Int Int Int Int Int Int Int) Bool)

(declare-fun k_457 (Int Int Int Int Int Int Int Int Int Int Int Int Int) Bool)

(declare-fun k_455 (Int Int Int Int Int Int Int Int Int Int Int Int Int) Bool)

(declare-fun k_453 (Int Int Int Int Int Int Int Int Int Int Int Int) Bool)

(declare-fun k_450 (Int Int Int Int Int Int Int Int Int Int Int Int Int) Bool)

(declare-fun k_448 (Int Int Int Int Int Int Int Int Int Int Int Int Int) Bool)

(declare-fun k_446 (Int Int Int Int Int Int Int Int Int Int Int Int Int) Bool)

(declare-fun k_444 (Int Int Int Int Int Int Int Int Int Int Int Int) Bool)

(declare-fun k_442 (Int Int Int Int Int Int Int Int Int Int Int) Bool)

(declare-fun k_438 (Int Int Int Int Int Int Int Int Int) Bool)

(declare-fun k_436 (Int Int Int Int Int Int Int Int Int) Bool)

(declare-fun k_434 (Int Int Int Int Int Int Int Int Int) Bool)

(declare-fun k_430 (Int Int Int Int Int Int Int) Bool)

(declare-fun k_427 (Int Int Int Int Int Int Int Int Int) Bool)

(declare-fun k_425 (Int Int Int Int Int Int Int Int Int) Bool)

(declare-fun k_422 (Int Int Int Int Int Int Int Int Int Int) Bool)

(declare-fun k_420 (Int Int Int Int Int Int Int Int Int Int) Bool)

(declare-fun k_418 (Int Int Int Int Int Int Int Int Int Int) Bool)

(declare-fun k_414 (Int Int Int Int Int Int Int Int) Bool)

(declare-fun k_410 (Int Int Int Int Int Int) Bool)

(declare-fun k_407 (Int Int Int Int Int Int Int Int) Bool)

(declare-fun k_405 (Int Int Int Int Int Int Int Int) Bool)

(declare-fun k_401 (Int Int Int Int Int Int Int Int Int Int) Bool)

(declare-fun k_398 (Int Int Int Int Int Int Int Int Int) Bool)

(declare-fun k_396 (Int Int Int Int Int Int Int Int Int) Bool)

(declare-fun k_394 (Int Int Int Int Int Int Int Int Int) Bool)

(declare-fun k_392 (Int Int Int Int Int Int Int Int Int) Bool)

(declare-fun k_388 (Int Int Int Int Int Int Int) Bool)

(declare-fun k_386 (Int Int Int Int Int Int Int) Bool)

(declare-fun k_382 (Int Int Int Int Int) Bool)

(declare-fun k_377 (Int Int Int Int Int Int Int Int Int Int Int) Bool)

(declare-fun k_375 (Int Int Int Int Int Int Int Int Int Int) Bool)

(declare-fun k_373 (Int Int Int Int Int Int Int Int Int Int) Bool)

(declare-fun k_368 (Int Int Int Int Int Int Int) Bool)

(declare-fun k_365 (Int Int Int Int Int Int Int Int) Bool)

(declare-fun k_363 (Int Int Int Int Int Int Int Int) Bool)

(declare-fun k_361 (Int Int Int Int Int Int Int Int) Bool)

(declare-fun k_358 (Int Int Int Int Int Int) Bool)

(declare-fun k_353 (Int Int Int Int Int Int Int Int Int) Bool)

(declare-fun k_347 (Int Int Int Int Int Int) Bool)

(declare-fun k_344 (Int Int Int Int Int) Bool)

(declare-fun k_341 (Int Int Int Int Int Int) Bool)

(declare-fun k_339 (Int Int Int Int Int Int) Bool)

(declare-fun k_337 (Int Int Int Int Int Int) Bool)

(declare-fun k_331 (Int Int Int Int Int Int Int Int Int Int Int) Bool)

(declare-fun k_325 (Int Int Int Int Int Int Int Int Int Int Int Int) Bool)

(declare-fun k_323 (Int Int Int Int Int Int Int Int Int Int) Bool)

(declare-fun k_321 (Int Int Int Int Int Int Int Int Int Int) Bool)

(declare-fun k_319 (Int Int Int Int Int Int Int Int Int Int) Bool)

(declare-fun k_314 (Int Int Int Int Int Int Int) Bool)

(declare-fun k_310 (Int Int Int Int Int Int Int Int Int) Bool)

(declare-fun k_307 (Int Int Int Int Int Int Int Int) Bool)

(declare-fun k_305 (Int Int Int Int Int Int Int Int) Bool)

(declare-fun k_303 (Int Int Int Int Int Int Int Int) Bool)

(declare-fun k_301 (Int Int Int Int Int Int Int Int) Bool)

(declare-fun k_298 (Int Int Int Int Int Int) Bool)

(declare-fun k_293 (Int Int Int Int Int Int Int Int Int Int) Bool)

(declare-fun k_286 (Int Int Int Int Int Int) Bool)

(declare-fun k_283 (Int Int Int Int Int) Bool)

(declare-fun k_279 (Int Int Int Int Int Int Int) Bool)

(declare-fun k_276 (Int Int Int Int Int Int) Bool)

(declare-fun k_274 (Int Int Int Int Int Int) Bool)

(declare-fun k_272 (Int Int Int Int Int Int) Bool)

(declare-fun k_270 (Int Int Int Int Int Int) Bool)

(declare-fun k_264 (Int Int Int Int Int Int Int Int Int Int Int Int Int Int Int Int) Bool)

(declare-fun k_261 (Int Int Int Int Int Int Int Int Int Int Int Int Int Int Int Int Int) Bool)

(declare-fun k_258 (Int Int Int Int Int Int Int Int Int Int Int Int Int Int Int Int Int) Bool)

(declare-fun k_256 (Int Int Int Int Int Int Int Int Int Int Int Int Int Int Int Int Int Int) Bool)

(declare-fun k_254 (Int Int Int Int Int Int Int Int Int Int Int Int Int Int Int Int Int Int) Bool)

(declare-fun k_252 (Int Int Int Int Int Int Int Int Int Int Int Int Int Int Int Int Int) Bool)

(declare-fun k_249 (Int Int Int Int Int Int Int Int Int Int Int Int Int Int Int Int Int Int) Bool)

(declare-fun k_247 (Int Int Int Int Int Int Int Int Int Int Int Int Int Int Int Int Int Int) Bool)

(declare-fun k_245 (Int Int Int Int Int Int Int Int Int Int Int Int Int Int Int Int Int Int) Bool)

(declare-fun k_243 (Int Int Int Int Int Int Int Int Int Int Int Int Int Int Int Int Int) Bool)

(declare-fun k_241 (Int Int Int Int Int Int Int Int Int Int Int Int Int Int Int) Bool)

(declare-fun k_238 (Int Int Int Int Int Int Int Int Int Int Int Int Int Int Int Int) Bool)

(declare-fun k_235 (Int Int Int Int Int Int Int Int Int Int Int Int Int Int Int Int) Bool)

(declare-fun k_233 (Int Int Int Int Int Int Int Int Int Int Int Int Int Int Int Int Int) Bool)

(declare-fun k_231 (Int Int Int Int Int Int Int Int Int Int Int Int Int Int Int Int Int) Bool)

(declare-fun k_229 (Int Int Int Int Int Int Int Int Int Int Int Int Int Int Int Int) Bool)

(declare-fun k_226 (Int Int Int Int Int Int Int Int Int Int Int Int Int Int Int Int Int) Bool)

(declare-fun k_224 (Int Int Int Int Int Int Int Int Int Int Int Int Int Int Int Int Int) Bool)

(declare-fun k_222 (Int Int Int Int Int Int Int Int Int Int Int Int Int Int Int Int Int) Bool)

(declare-fun k_220 (Int Int Int Int Int Int Int Int Int Int Int Int Int Int Int Int) Bool)

(declare-fun k_218 (Int Int Int Int Int Int Int Int Int Int Int Int Int Int Int) Bool)

(declare-fun k_213 (Int Int Int Int Int Int Int Int Int Int Int Int Int Int Int) Bool)

(declare-fun k_210 (Int Int Int Int Int Int Int Int Int Int Int Int Int Int Int Int) Bool)

(declare-fun k_208 (Int Int Int Int Int Int Int Int Int Int Int Int Int Int Int Int) Bool)

(declare-fun k_206 (Int Int Int Int Int Int Int Int Int Int Int Int Int Int Int Int) Bool)

(declare-fun k_204 (Int Int Int Int Int Int Int Int Int Int Int Int Int Int) Bool)

(declare-fun k_201 (Int Int Int Int Int Int Int Int Int Int Int Int Int Int Int) Bool)

(declare-fun k_199 (Int Int Int Int Int Int Int Int Int Int Int Int Int Int Int) Bool)

(declare-fun k_197 (Int Int Int Int Int Int Int Int Int Int Int Int Int Int Int) Bool)

(declare-fun k_195 (Int Int Int Int Int Int Int Int Int Int Int Int Int Int) Bool)

(declare-fun k_190 (Int Int Int Int Int Int Int Int Int Int Int Int Int Int) Bool)

(declare-fun k_188 (Int Int Int Int Int Int Int Int Int Int Int Int Int) Bool)

(declare-fun k_186 (Int Int Int Int Int Int Int Int Int Int Int Int Int) Bool)

(declare-fun k_179 (Int Int Int Int Int Int Int Int) Bool)

(declare-fun k_176 (Int Int Int Int Int Int Int Int Int) Bool)

(declare-fun k_173 (Int Int Int Int Int Int Int Int Int) Bool)

(declare-fun k_170 (Int Int Int Int Int Int Int Int Int) Bool)

(declare-fun k_168 (Int Int Int Int Int Int Int Int Int Int) Bool)

(declare-fun k_166 (Int Int Int Int Int Int Int Int Int Int) Bool)

(declare-fun k_164 (Int Int Int Int Int Int Int Int Int Int) Bool)

(declare-fun k_161 (Int Int Int Int Int Int Int Int Int Int) Bool)

(declare-fun k_159 (Int Int Int Int Int Int Int Int Int Int Int) Bool)

(declare-fun k_157 (Int Int Int Int Int Int Int Int Int Int Int) Bool)

(declare-fun k_155 (Int Int Int Int Int Int Int Int Int Int) Bool)

(declare-fun k_153 (Int Int Int Int Int Int Int Int Int) Bool)

(declare-fun k_150 (Int Int Int Int Int Int Int Int Int Int) Bool)

(declare-fun k_147 (Int Int Int Int Int Int Int Int Int Int) Bool)

(declare-fun k_145 (Int Int Int Int Int Int Int Int Int Int Int) Bool)

(declare-fun k_143 (Int Int Int Int Int Int Int Int Int Int Int) Bool)

(declare-fun k_141 (Int Int Int Int Int Int Int Int Int Int) Bool)

(declare-fun k_138 (Int Int Int Int Int Int Int Int Int Int Int) Bool)

(declare-fun k_136 (Int Int Int Int Int Int Int Int Int Int Int) Bool)

(declare-fun k_134 (Int Int Int Int Int Int Int Int Int Int Int) Bool)

(declare-fun k_132 (Int Int Int Int Int Int Int Int Int Int) Bool)

(declare-fun k_130 (Int Int Int Int Int Int Int Int Int) Bool)

(declare-fun k_127 (Int Int Int Int Int Int Int) Bool)

(declare-fun k_121 (Int Int Int Int Int Int Int Int Int Int Int Int Int Int Int) Bool)

(declare-fun k_107 (Int Int Int Int Int Int) Bool)

(declare-fun k_104 (Int Int Int Int Int) Bool)

(declare-fun k_101 (Int Int Int Int Int Int) Bool)

; CONSTRAINTS

; cid = 94
(assert (forall ((EQ_6U Int) 
(GT_6W Int) (LT_6S Int) (Prop (Array Int Bool)) (True_6u Int) (VV_F94 Int) 
(cmp (Array Int Int)) (ds_dIX Int) (ds_dIY Int) 
(fix__40__44__44__35_76 (Array Int (Array Int (Array Int Int)))) 
(lq_anf__dJd Int) (lq_anf__dJe Int) (x_aGq Int) 
(y_aGr Int)) 
 (=> (and (not (select Prop VV_F94)) (and (k_283 EQ_6U GT_6W LT_6S True_6u ds_dIX) (and (k_272 EQ_6U GT_6W LT_6S True_6u ds_dIY lq_anf__dJd) (and (k_276 EQ_6U GT_6W LT_6S True_6u ds_dIY x_aGq) (and (k_283 EQ_6U GT_6W LT_6S True_6u lq_anf__dJd) (and (k_270 EQ_6U GT_6W LT_6S True_6u x_aGq lq_anf__dJd) (and (k_274 EQ_6U GT_6W LT_6S True_6u y_aGr lq_anf__dJd) (and (k_279 EQ_6U GT_6W LT_6S True_6u y_aGr ds_dIY x_aGq) (and (= (select cmp EQ_6U) EQ_6U) (and (= (select cmp GT_6W) GT_6W) (and (= (select cmp LT_6S) LT_6S) (and (select Prop True_6u) (and (= lq_anf__dJd ds_dIX) (and (= lq_anf__dJd (select (select (select fix__40__44__44__35_76 x_aGq) ds_dIY) y_aGr)) (and (= (select Prop lq_anf__dJe) (< x_aGq y_aGr)) (and (= (select Prop VV_F94) (< x_aGq y_aGr)) (and (= VV_F94 lq_anf__dJe) true))))))))))))))))) false))
)


; cid = 92
(assert (forall ((EQ_6U Int) (GT_6W Int) (LT_6S Int) 
(Prop (Array Int Bool)) (True_6u Int) (VV_F92 Int) (cmp (Array Int Int)) 
(lq_anf__dJf Int) (lq_anf__dJg Int) (lq_anf__dJh Int) (t_aHI Int) 
(x_aGp Int)) 
 (=> (and (k_298 EQ_6U GT_6W LT_6S True_6u x_aGp t_aHI) (and (= (select cmp EQ_6U) EQ_6U) (and (= (select cmp GT_6W) GT_6W) (and (= (select cmp LT_6S) LT_6S) (and (select Prop True_6u) (and (= lq_anf__dJf 1) (and (= lq_anf__dJg lq_anf__dJf) (and (= lq_anf__dJh (+ x_aGp lq_anf__dJg)) (and (k_298 EQ_6U GT_6W LT_6S True_6u VV_F92 t_aHI) (and (= VV_F92 x_aGp) true)))))))))) (k_319 EQ_6U GT_6W LT_6S True_6u VV_F92 lq_anf__dJf lq_anf__dJg lq_anf__dJh t_aHI x_aGp)))
)


; cid = 91
(assert (forall ((EQ_6U Int) (GT_6W Int) (LT_6S Int) 
(Prop (Array Int Bool)) (True_6u Int) (VV_F91 Int) (cmp (Array Int Int)) 
(lq_anf__dJf Int) (lq_anf__dJg Int) (lq_anf__dJh Int) (t_aHI Int) 
(x_aGp Int)) 
 (=> (and (k_298 EQ_6U GT_6W LT_6S True_6u x_aGp t_aHI) (and (= (select cmp EQ_6U) EQ_6U) (and (= (select cmp GT_6W) GT_6W) (and (= (select cmp LT_6S) LT_6S) (and (select Prop True_6u) (and (= lq_anf__dJf 1) (and (= lq_anf__dJg lq_anf__dJf) (and (= lq_anf__dJh (+ x_aGp lq_anf__dJg)) (and (select Prop VV_F91) (and (= VV_F91 True_6u) true)))))))))) (k_331 EQ_6U GT_6W LT_6S True_6u VV_F91 lq_anf__dJf lq_anf__dJg lq_anf__dJh x_aGp t_aHI x_aGp)))
)


; cid = 91
(assert (forall ((EQ_6U Int) (GT_6W Int) (LT_6S Int) 
(Prop (Array Int Bool)) (True_6u Int) (VV_F91 Int) (cmp (Array Int Int)) 
(lq_anf__dJf Int) (lq_anf__dJg Int) (lq_anf__dJh Int) (t_aHI Int) 
(x_aGp Int)) 
 (=> (and (k_298 EQ_6U GT_6W LT_6S True_6u x_aGp t_aHI) (and (= (select cmp EQ_6U) EQ_6U) (and (= (select cmp GT_6W) GT_6W) (and (= (select cmp LT_6S) LT_6S) (and (select Prop True_6u) (and (= lq_anf__dJf 1) (and (= lq_anf__dJg lq_anf__dJf) (and (= lq_anf__dJh (+ x_aGp lq_anf__dJg)) (and (select Prop VV_F91) (and (= VV_F91 True_6u) true)))))))))) (k_321 EQ_6U GT_6W LT_6S True_6u VV_F91 lq_anf__dJf lq_anf__dJg lq_anf__dJh t_aHI x_aGp)))
)


; cid = 90
(assert (forall ((EQ_6U Int) (GT_6W Int) (LT_6S Int) 
(Prop (Array Int Bool)) (True_6u Int) (VV_F90 Int) (cmp (Array Int Int)) 
(lq_anf__dJf Int) (lq_anf__dJg Int) (lq_anf__dJh Int) (t_aHI Int) 
(x_aGp Int)) 
 (=> (and (k_298 EQ_6U GT_6W LT_6S True_6u x_aGp t_aHI) (and (= (select cmp EQ_6U) EQ_6U) (and (= (select cmp GT_6W) GT_6W) (and (= (select cmp LT_6S) LT_6S) (and (select Prop True_6u) (and (= lq_anf__dJf 1) (and (= lq_anf__dJg lq_anf__dJf) (and (= lq_anf__dJh (+ x_aGp lq_anf__dJg)) (and (= VV_F90 (+ x_aGp lq_anf__dJg)) (and (= VV_F90 lq_anf__dJh) true)))))))))) (k_325 EQ_6U GT_6W LT_6S True_6u VV_F90 lq_anf__dJf lq_anf__dJg lq_anf__dJh True_6u x_aGp t_aHI x_aGp)))
)


; cid = 90
(assert (forall ((EQ_6U Int) (GT_6W Int) (LT_6S Int) 
(Prop (Array Int Bool)) (True_6u Int) (VV_F90 Int) (cmp (Array Int Int)) 
(lq_anf__dJf Int) (lq_anf__dJg Int) (lq_anf__dJh Int) (t_aHI Int) 
(x_aGp Int)) 
 (=> (and (k_298 EQ_6U GT_6W LT_6S True_6u x_aGp t_aHI) (and (= (select cmp EQ_6U) EQ_6U) (and (= (select cmp GT_6W) GT_6W) (and (= (select cmp LT_6S) LT_6S) (and (select Prop True_6u) (and (= lq_anf__dJf 1) (and (= lq_anf__dJg lq_anf__dJf) (and (= lq_anf__dJh (+ x_aGp lq_anf__dJg)) (and (= VV_F90 (+ x_aGp lq_anf__dJg)) (and (= VV_F90 lq_anf__dJh) true)))))))))) (k_323 EQ_6U GT_6W LT_6S True_6u VV_F90 lq_anf__dJf lq_anf__dJg lq_anf__dJh t_aHI x_aGp)))
)


; cid = 89
(assert (forall ((EQ_6U Int) (GT_6W Int) (LT_6S Int) 
(Prop (Array Int Bool)) (True_6u Int) (VV_F89 Int) (cmp (Array Int Int)) 
(lq_anf__dJf Int) (lq_anf__dJg Int) (lq_anf__dJh Int) (lq_tmp_x311 Int) 
(lq_tmp_x312 Int) (t_aHI Int) 
(x_aGp Int)) 
 (=> (and (k_298 EQ_6U GT_6W LT_6S True_6u x_aGp t_aHI) (and (= (select cmp EQ_6U) EQ_6U) (and (= (select cmp GT_6W) GT_6W) (and (= (select cmp LT_6S) LT_6S) (and (select Prop True_6u) (and (= lq_anf__dJf 1) (and (= lq_anf__dJg lq_anf__dJf) (and (= lq_anf__dJh (+ x_aGp lq_anf__dJg)) (and (k_325 EQ_6U GT_6W LT_6S True_6u VV_F89 lq_anf__dJf lq_anf__dJg lq_anf__dJh lq_tmp_x311 lq_tmp_x312 t_aHI x_aGp) true))))))))) (k_310 EQ_6U GT_6W LT_6S True_6u VV_F89 lq_tmp_x311 lq_tmp_x312 t_aHI x_aGp)))
)


; cid = 88
(assert (forall ((EQ_6U Int) (GT_6W Int) (LT_6S Int) 
(Prop (Array Int Bool)) (True_6u Int) (VV_F88 Int) (cmp (Array Int Int)) 
(lq_anf__dJf Int) (lq_anf__dJg Int) (lq_anf__dJh Int) (lq_tmp_x308 Int) 
(t_aHI Int) 
(x_aGp Int)) 
 (=> (and (k_298 EQ_6U GT_6W LT_6S True_6u x_aGp t_aHI) (and (= (select cmp EQ_6U) EQ_6U) (and (= (select cmp GT_6W) GT_6W) (and (= (select cmp LT_6S) LT_6S) (and (select Prop True_6u) (and (= lq_anf__dJf 1) (and (= lq_anf__dJg lq_anf__dJf) (and (= lq_anf__dJh (+ x_aGp lq_anf__dJg)) (and (k_331 EQ_6U GT_6W LT_6S True_6u VV_F88 lq_anf__dJf lq_anf__dJg lq_anf__dJh lq_tmp_x308 t_aHI x_aGp) true))))))))) (k_307 EQ_6U GT_6W LT_6S True_6u VV_F88 lq_tmp_x308 t_aHI x_aGp)))
)


; cid = 87
(assert (forall ((EQ_6U Int) (GT_6W Int) (LT_6S Int) 
(Prop (Array Int Bool)) (True_6u Int) (VV_679 Int) (VV_F87 Int) 
(cmp (Array Int Int)) (lq_anf__dJf Int) (lq_anf__dJg Int) (lq_anf__dJh Int) 
(t_aHI Int) 
(x_aGp Int)) 
 (=> (and (k_298 EQ_6U GT_6W LT_6S True_6u x_aGp t_aHI) (and (= (select cmp EQ_6U) EQ_6U) (and (= (select cmp GT_6W) GT_6W) (and (= (select cmp LT_6S) LT_6S) (and (select Prop True_6u) (and (= lq_anf__dJf 1) (and (= lq_anf__dJg lq_anf__dJf) (and (= lq_anf__dJh (+ x_aGp lq_anf__dJg)) (and (k_323 EQ_6U GT_6W LT_6S True_6u VV_F87 lq_anf__dJf lq_anf__dJg lq_anf__dJh t_aHI x_aGp) true))))))))) (k_305 EQ_6U GT_6W LT_6S True_6u VV_F87 VV_679 t_aHI x_aGp)))
)


; cid = 86
(assert (forall ((EQ_6U Int) (GT_6W Int) (LT_6S Int) 
(Prop (Array Int Bool)) (True_6u Int) (VV_679 Int) (VV_F86 Int) 
(cmp (Array Int Int)) (lq_anf__dJf Int) (lq_anf__dJg Int) (lq_anf__dJh Int) 
(t_aHI Int) 
(x_aGp Int)) 
 (=> (and (k_298 EQ_6U GT_6W LT_6S True_6u x_aGp t_aHI) (and (= (select cmp EQ_6U) EQ_6U) (and (= (select cmp GT_6W) GT_6W) (and (= (select cmp LT_6S) LT_6S) (and (select Prop True_6u) (and (= lq_anf__dJf 1) (and (= lq_anf__dJg lq_anf__dJf) (and (= lq_anf__dJh (+ x_aGp lq_anf__dJg)) (and (k_321 EQ_6U GT_6W LT_6S True_6u VV_F86 lq_anf__dJf lq_anf__dJg lq_anf__dJh t_aHI x_aGp) true))))))))) (k_303 EQ_6U GT_6W LT_6S True_6u VV_F86 VV_679 t_aHI x_aGp)))
)


; cid = 85
(assert (forall ((EQ_6U Int) (GT_6W Int) (LT_6S Int) 
(Prop (Array Int Bool)) (True_6u Int) (VV_679 Int) (VV_F85 Int) 
(cmp (Array Int Int)) (lq_anf__dJf Int) (lq_anf__dJg Int) (lq_anf__dJh Int) 
(t_aHI Int) 
(x_aGp Int)) 
 (=> (and (k_298 EQ_6U GT_6W LT_6S True_6u x_aGp t_aHI) (and (= (select cmp EQ_6U) EQ_6U) (and (= (select cmp GT_6W) GT_6W) (and (= (select cmp LT_6S) LT_6S) (and (select Prop True_6u) (and (= lq_anf__dJf 1) (and (= lq_anf__dJg lq_anf__dJf) (and (= lq_anf__dJh (+ x_aGp lq_anf__dJg)) (and (k_319 EQ_6U GT_6W LT_6S True_6u VV_F85 lq_anf__dJf lq_anf__dJg lq_anf__dJh t_aHI x_aGp) true))))))))) (k_301 EQ_6U GT_6W LT_6S True_6u VV_F85 VV_679 t_aHI x_aGp)))
)


; cid = 84
(assert (forall ((EQ_6U Int) (GT_6W Int) (LT_6S Int) 
(Prop (Array Int Bool)) (True_6u Int) (VV_F84 Int) (cmp (Array Int Int)) 
(lq_anf__dJf Int) (lq_anf__dJg Int) (lq_anf__dJh Int) (t_aHI Int) 
(x_aGp Int)) 
 (=> (and (k_298 EQ_6U GT_6W LT_6S True_6u x_aGp t_aHI) (and (= (select cmp EQ_6U) EQ_6U) (and (= (select cmp GT_6W) GT_6W) (and (= (select cmp LT_6S) LT_6S) (and (select Prop True_6u) (and (= lq_anf__dJf 1) (and (= lq_anf__dJg lq_anf__dJf) (and (= lq_anf__dJh (+ x_aGp lq_anf__dJg)) true)))))))) (k_314 EQ_6U GT_6W LT_6S True_6u VV_F84 t_aHI x_aGp)))
)


; cid = 73
(assert (forall ((EQ_6U Int) (GT_6W Int) (LT_6S Int) 
(Prop (Array Int Bool)) (True_6u Int) (VV_F73 Int) (cmp (Array Int Int)) 
(lq_anf__dJn Int) (n_aGs Int) 
(t_aHI Int)) 
 (=> (and (= (select cmp EQ_6U) EQ_6U) (and (= (select cmp GT_6W) GT_6W) (and (= (select cmp LT_6S) LT_6S) (and (select Prop True_6u) (and (= lq_anf__dJn 0) (and (= VV_F73 n_aGs) true)))))) (k_298 EQ_6U GT_6W LT_6S True_6u VV_F73 t_aHI)))
)


; cid = 71
(assert (forall ((EQ_6U Int) (GT_6W Int) (LT_6S Int) 
(Prop (Array Int Bool)) (True_6u Int) (VV_F71 Int) (cmp (Array Int Int)) 
(lq_anf__dJn Int) (lq_anf__dJp Int) (lq_tmp_x280 Int) (lq_tmp_x281 Int) 
(n_aGs Int) 
(t_aHI Int)) 
 (=> (and (k_314 EQ_6U GT_6W LT_6S True_6u lq_anf__dJp t_aHI n_aGs) (and (= (select cmp EQ_6U) EQ_6U) (and (= (select cmp GT_6W) GT_6W) (and (= (select cmp LT_6S) LT_6S) (and (select Prop True_6u) (and (= lq_anf__dJn 0) (and (k_401 EQ_6U GT_6W LT_6S True_6u VV_F71 lq_anf__dJn lq_anf__dJp lq_tmp_x280 lq_tmp_x281 n_aGs) true))))))) (k_279 EQ_6U GT_6W LT_6S True_6u VV_F71 lq_tmp_x280 lq_tmp_x281)))
)


; cid = 70
(assert (forall ((EQ_6U Int) (GT_6W Int) (LT_6S Int) 
(Prop (Array Int Bool)) (True_6u Int) (VV_F70 Int) (cmp (Array Int Int)) 
(lq_anf__dJn Int) (lq_anf__dJp Int) (lq_tmp_x277 Int) (n_aGs Int) 
(t_aHI Int)) 
 (=> (and (k_314 EQ_6U GT_6W LT_6S True_6u lq_anf__dJp t_aHI n_aGs) (and (= (select cmp EQ_6U) EQ_6U) (and (= (select cmp GT_6W) GT_6W) (and (= (select cmp LT_6S) LT_6S) (and (select Prop True_6u) (and (= lq_anf__dJn 0) (and (k_398 EQ_6U GT_6W LT_6S True_6u VV_F70 lq_anf__dJn lq_anf__dJp lq_tmp_x277 n_aGs) true))))))) (k_276 EQ_6U GT_6W LT_6S True_6u VV_F70 lq_tmp_x277)))
)


; cid = 69
(assert (forall ((EQ_6U Int) (GT_6W Int) (LT_6S Int) 
(Prop (Array Int Bool)) (True_6u Int) (VV_646 Int) (VV_F69 Int) 
(cmp (Array Int Int)) (lq_anf__dJn Int) (lq_anf__dJp Int) (n_aGs Int) 
(t_aHI Int)) 
 (=> (and (k_405 EQ_6U GT_6W LT_6S True_6u VV_646 lq_anf__dJn lq_anf__dJp n_aGs) (and (k_314 EQ_6U GT_6W LT_6S True_6u lq_anf__dJp t_aHI n_aGs) (and (= (select cmp EQ_6U) EQ_6U) (and (= (select cmp GT_6W) GT_6W) (and (= (select cmp LT_6S) LT_6S) (and (select Prop True_6u) (and (= lq_anf__dJn 0) (and (k_396 EQ_6U GT_6W LT_6S True_6u VV_F69 VV_646 lq_anf__dJn lq_anf__dJp n_aGs) true)))))))) (k_274 EQ_6U GT_6W LT_6S True_6u VV_F69 VV_646)))
)


; cid = 69
(assert (forall ((EQ_6U Int) (GT_6W Int) (LT_6S Int) 
(Prop (Array Int Bool)) (True_6u Int) (VV_646 Int) (VV_F69 Int) 
(cmp (Array Int Int)) (lq_anf__dJn Int) (lq_anf__dJp Int) (n_aGs Int) 
(t_aHI Int)) 
 (=> (and (k_405 EQ_6U GT_6W LT_6S True_6u VV_646 lq_anf__dJn lq_anf__dJp n_aGs) (and (k_314 EQ_6U GT_6W LT_6S True_6u lq_anf__dJp t_aHI n_aGs) (and (= (select cmp EQ_6U) EQ_6U) (and (= (select cmp GT_6W) GT_6W) (and (= (select cmp LT_6S) LT_6S) (and (select Prop True_6u) (and (= lq_anf__dJn 0) (and (k_396 EQ_6U GT_6W LT_6S True_6u VV_F69 VV_646 lq_anf__dJn lq_anf__dJp n_aGs) true)))))))) (k_388 EQ_6U GT_6W LT_6S True_6u VV_F69 lq_anf__dJn n_aGs)))
)


; cid = 68
(assert (forall ((EQ_6U Int) (GT_6W Int) (LT_6S Int) 
(Prop (Array Int Bool)) (True_6u Int) (VV_646 Int) (VV_F68 Int) 
(cmp (Array Int Int)) (lq_anf__dJn Int) (lq_anf__dJp Int) (n_aGs Int) 
(t_aHI Int)) 
 (=> (and (k_405 EQ_6U GT_6W LT_6S True_6u VV_646 lq_anf__dJn lq_anf__dJp n_aGs) (and (k_314 EQ_6U GT_6W LT_6S True_6u lq_anf__dJp t_aHI n_aGs) (and (= (select cmp EQ_6U) EQ_6U) (and (= (select cmp GT_6W) GT_6W) (and (= (select cmp LT_6S) LT_6S) (and (select Prop True_6u) (and (= lq_anf__dJn 0) (and (k_394 EQ_6U GT_6W LT_6S True_6u VV_F68 VV_646 lq_anf__dJn lq_anf__dJp n_aGs) true)))))))) (k_272 EQ_6U GT_6W LT_6S True_6u VV_F68 VV_646)))
)


; cid = 68
(assert (forall ((EQ_6U Int) (GT_6W Int) (LT_6S Int) 
(Prop (Array Int Bool)) (True_6u Int) (VV_646 Int) (VV_F68 Int) 
(cmp (Array Int Int)) (lq_anf__dJn Int) (lq_anf__dJp Int) (n_aGs Int) 
(t_aHI Int)) 
 (=> (and (k_405 EQ_6U GT_6W LT_6S True_6u VV_646 lq_anf__dJn lq_anf__dJp n_aGs) (and (k_314 EQ_6U GT_6W LT_6S True_6u lq_anf__dJp t_aHI n_aGs) (and (= (select cmp EQ_6U) EQ_6U) (and (= (select cmp GT_6W) GT_6W) (and (= (select cmp LT_6S) LT_6S) (and (select Prop True_6u) (and (= lq_anf__dJn 0) (and (k_394 EQ_6U GT_6W LT_6S True_6u VV_F68 VV_646 lq_anf__dJn lq_anf__dJp n_aGs) true)))))))) (k_386 EQ_6U GT_6W LT_6S True_6u VV_F68 lq_anf__dJn n_aGs)))
)


; cid = 67
(assert (forall ((EQ_6U Int) (GT_6W Int) (LT_6S Int) 
(Prop (Array Int Bool)) (True_6u Int) (VV_646 Int) (VV_F67 Int) 
(cmp (Array Int Int)) (lq_anf__dJn Int) (lq_anf__dJp Int) (n_aGs Int) 
(t_aHI Int)) 
 (=> (and (k_405 EQ_6U GT_6W LT_6S True_6u VV_646 lq_anf__dJn lq_anf__dJp n_aGs) (and (k_314 EQ_6U GT_6W LT_6S True_6u lq_anf__dJp t_aHI n_aGs) (and (= (select cmp EQ_6U) EQ_6U) (and (= (select cmp GT_6W) GT_6W) (and (= (select cmp LT_6S) LT_6S) (and (select Prop True_6u) (and (= lq_anf__dJn 0) (and (k_392 EQ_6U GT_6W LT_6S True_6u VV_F67 VV_646 lq_anf__dJn lq_anf__dJp n_aGs) true)))))))) (k_270 EQ_6U GT_6W LT_6S True_6u VV_F67 VV_646)))
)


; cid = 67
(assert (forall ((EQ_6U Int) (GT_6W Int) (LT_6S Int) 
(Prop (Array Int Bool)) (True_6u Int) (VV_646 Int) (VV_F67 Int) 
(cmp (Array Int Int)) (lq_anf__dJn Int) (lq_anf__dJp Int) (n_aGs Int) 
(t_aHI Int)) 
 (=> (and (k_405 EQ_6U GT_6W LT_6S True_6u VV_646 lq_anf__dJn lq_anf__dJp n_aGs) (and (k_314 EQ_6U GT_6W LT_6S True_6u lq_anf__dJp t_aHI n_aGs) (and (= (select cmp EQ_6U) EQ_6U) (and (= (select cmp GT_6W) GT_6W) (and (= (select cmp LT_6S) LT_6S) (and (select Prop True_6u) (and (= lq_anf__dJn 0) (and (k_392 EQ_6U GT_6W LT_6S True_6u VV_F67 VV_646 lq_anf__dJn lq_anf__dJp n_aGs) true)))))))) (k_388 EQ_6U GT_6W LT_6S True_6u VV_F67 lq_anf__dJn n_aGs)))
)


; cid = 66
(assert (forall ((EQ_6U Int) (GT_6W Int) (LT_6S Int) 
(Prop (Array Int Bool)) (True_6u Int) (VV_F66 Int) (cmp (Array Int Int)) 
(lq_anf__dJn Int) (lq_anf__dJp Int) (n_aGs Int) 
(t_aHI Int)) 
 (=> (and (k_314 EQ_6U GT_6W LT_6S True_6u lq_anf__dJp t_aHI n_aGs) (and (= (select cmp EQ_6U) EQ_6U) (and (= (select cmp GT_6W) GT_6W) (and (= (select cmp LT_6S) LT_6S) (and (select Prop True_6u) (and (= lq_anf__dJn 0) (and (k_405 EQ_6U GT_6W LT_6S True_6u VV_F66 lq_anf__dJn lq_anf__dJp n_aGs) true))))))) (k_283 EQ_6U GT_6W LT_6S True_6u VV_F66)))
)


; cid = 65
(assert (forall ((EQ_6U Int) (GT_6W Int) (LT_6S Int) 
(Prop (Array Int Bool)) (True_6u Int) (VV_F65 Int) (cmp (Array Int Int)) 
(lq_anf__dJn Int) (lq_anf__dJp Int) (lq_tmp_x402 Int) (lq_tmp_x403 Int) 
(n_aGs Int) 
(t_aHI Int)) 
 (=> (and (k_314 EQ_6U GT_6W LT_6S True_6u lq_anf__dJp t_aHI n_aGs) (and (= (select cmp EQ_6U) EQ_6U) (and (= (select cmp GT_6W) GT_6W) (and (= (select cmp LT_6S) LT_6S) (and (select Prop True_6u) (and (= lq_anf__dJn 0) (and (k_310 EQ_6U GT_6W LT_6S True_6u VV_F65 lq_tmp_x402 lq_tmp_x403 t_aHI n_aGs) true))))))) (k_401 EQ_6U GT_6W LT_6S True_6u VV_F65 lq_anf__dJn lq_anf__dJp lq_tmp_x402 lq_tmp_x403 n_aGs)))
)


; cid = 64
(assert (forall ((EQ_6U Int) (GT_6W Int) (LT_6S Int) 
(Prop (Array Int Bool)) (True_6u Int) (VV_F64 Int) (cmp (Array Int Int)) 
(lq_anf__dJn Int) (lq_anf__dJp Int) (lq_tmp_x399 Int) (n_aGs Int) 
(t_aHI Int)) 
 (=> (and (k_314 EQ_6U GT_6W LT_6S True_6u lq_anf__dJp t_aHI n_aGs) (and (= (select cmp EQ_6U) EQ_6U) (and (= (select cmp GT_6W) GT_6W) (and (= (select cmp LT_6S) LT_6S) (and (select Prop True_6u) (and (= lq_anf__dJn 0) (and (k_307 EQ_6U GT_6W LT_6S True_6u VV_F64 lq_tmp_x399 t_aHI n_aGs) true))))))) (k_398 EQ_6U GT_6W LT_6S True_6u VV_F64 lq_anf__dJn lq_anf__dJp lq_tmp_x399 n_aGs)))
)


; cid = 63
(assert (forall ((EQ_6U Int) (GT_6W Int) (LT_6S Int) 
(Prop (Array Int Bool)) (True_6u Int) (VV_631 Int) (VV_F63 Int) 
(cmp (Array Int Int)) (lq_anf__dJn Int) (lq_anf__dJp Int) (n_aGs Int) 
(t_aHI Int)) 
 (=> (and (k_314 EQ_6U GT_6W LT_6S True_6u VV_631 t_aHI n_aGs) (and (k_314 EQ_6U GT_6W LT_6S True_6u lq_anf__dJp t_aHI n_aGs) (and (= (select cmp EQ_6U) EQ_6U) (and (= (select cmp GT_6W) GT_6W) (and (= (select cmp LT_6S) LT_6S) (and (select Prop True_6u) (and (= VV_631 lq_anf__dJp) (and (= lq_anf__dJn 0) (and (k_305 EQ_6U GT_6W LT_6S True_6u VV_F63 VV_631 t_aHI n_aGs) true))))))))) (k_396 EQ_6U GT_6W LT_6S True_6u VV_F63 VV_631 lq_anf__dJn lq_anf__dJp n_aGs)))
)


; cid = 62
(assert (forall ((EQ_6U Int) (GT_6W Int) (LT_6S Int) 
(Prop (Array Int Bool)) (True_6u Int) (VV_631 Int) (VV_F62 Int) 
(cmp (Array Int Int)) (lq_anf__dJn Int) (lq_anf__dJp Int) (n_aGs Int) 
(t_aHI Int)) 
 (=> (and (k_314 EQ_6U GT_6W LT_6S True_6u VV_631 t_aHI n_aGs) (and (k_314 EQ_6U GT_6W LT_6S True_6u lq_anf__dJp t_aHI n_aGs) (and (= (select cmp EQ_6U) EQ_6U) (and (= (select cmp GT_6W) GT_6W) (and (= (select cmp LT_6S) LT_6S) (and (select Prop True_6u) (and (= VV_631 lq_anf__dJp) (and (= lq_anf__dJn 0) (and (k_303 EQ_6U GT_6W LT_6S True_6u VV_F62 VV_631 t_aHI n_aGs) true))))))))) (k_394 EQ_6U GT_6W LT_6S True_6u VV_F62 VV_631 lq_anf__dJn lq_anf__dJp n_aGs)))
)


; cid = 61
(assert (forall ((EQ_6U Int) (GT_6W Int) (LT_6S Int) 
(Prop (Array Int Bool)) (True_6u Int) (VV_631 Int) (VV_F61 Int) 
(cmp (Array Int Int)) (lq_anf__dJn Int) (lq_anf__dJp Int) (n_aGs Int) 
(t_aHI Int)) 
 (=> (and (k_314 EQ_6U GT_6W LT_6S True_6u VV_631 t_aHI n_aGs) (and (k_314 EQ_6U GT_6W LT_6S True_6u lq_anf__dJp t_aHI n_aGs) (and (= (select cmp EQ_6U) EQ_6U) (and (= (select cmp GT_6W) GT_6W) (and (= (select cmp LT_6S) LT_6S) (and (select Prop True_6u) (and (= VV_631 lq_anf__dJp) (and (= lq_anf__dJn 0) (and (k_301 EQ_6U GT_6W LT_6S True_6u VV_F61 VV_631 t_aHI n_aGs) true))))))))) (k_392 EQ_6U GT_6W LT_6S True_6u VV_F61 VV_631 lq_anf__dJn lq_anf__dJp n_aGs)))
)


; cid = 60
(assert (forall ((EQ_6U Int) (GT_6W Int) (LT_6S Int) 
(Prop (Array Int Bool)) (True_6u Int) (VV_F60 Int) (cmp (Array Int Int)) 
(lq_anf__dJn Int) (lq_anf__dJp Int) (n_aGs Int) 
(t_aHI Int)) 
 (=> (and (k_314 EQ_6U GT_6W LT_6S True_6u lq_anf__dJp t_aHI n_aGs) (and (= (select cmp EQ_6U) EQ_6U) (and (= (select cmp GT_6W) GT_6W) (and (= (select cmp LT_6S) LT_6S) (and (select Prop True_6u) (and (= lq_anf__dJn 0) (and (k_314 EQ_6U GT_6W LT_6S True_6u VV_F60 t_aHI n_aGs) (and (= VV_F60 lq_anf__dJp) true)))))))) (k_405 EQ_6U GT_6W LT_6S True_6u VV_F60 lq_anf__dJn lq_anf__dJp n_aGs)))
)
